c SAT problem
p wcnf 857 2334
1 -60 3135 0
1 -75 60 0
1 90 3105 0
1 -90 3075 0
1 -90 3165 0
1 105 -3090 0
1 -3120 135 0
1 3120 75 0
1 3135 3136 0
1 3135 105 0
1 3135 -75 0
1 -3150 -166 0
1 3150 75 0
1 -3165 3150 0
1 -3165 -151 0
1 3165 3166 0
1 -135 3105 0
1 135 -3075 0
1 135 -3060 0
1 135 -120 0
1 -150 -3045 0
1 -150 3060 0
1 -165 -3075 0
1 165 3015 0
1 -3060 210 0
1 3060 90 0
1 3075 -3076 0
1 -3075 105 0
1 3075 3060 0
1 3075 -120 0
1 -3090 135 0
1 -3090 -240 0
1 3105 -3106 0
1 -3105 -120 0
1 180 -3030 0
1 210 3015 0
1 -210 -3060 0
1 225 -3015 0
1 3030 -165 0
1 -3045 3046 0
1 -3045 180 0
1 -61 -3300 0
1 -61 62 0
1 76 3300 0
1 91 3285 0
1 -91 3255 0
1 -91 90 0
1 -106 -3270 0
1 -106 -105 0
1 -106 3345 0
1 -3300 3301 0
1 3300 136 0
1 -3300 91 0
1 3300 -61 0
1 3315 -76 0
1 3330 -76 0
1 121 -3270 0
1 121 -3150 0
1 136 -3285 0
1 -151 3240 0
1 151 -3285 0
1 166 -3270 0
1 166 167 0
1 -166 -3150 0
1 -166 3165 0
1 -3240 241 0
1 -3240 121 0
1 -3255 166 0
1 3255 -241 0
1 3255 -211 0
1 3270 -256 0
1 3270 197 0
1 -3270 91 0
1 3285 -256 0
1 -181 3120 0
1 -181 182 0
1 196 -3210 0
1 196 181 0
1 -196 3195 0
1 -211 -3105 0
1 211 -226 0
1 -211 3225 0
1 211 3166 0
1 226 3136 0
1 226 3166 0
1 3180 3181 0
1 3180 -181 0
1 3180 3195 0
1 -3180 285 0
1 3195 196 0
1 -3195 285 0
1 3225 -166 0
1 3225 151 0
1 -3225 316 0
1 -240 3045 0
1 255 -3075 0
1 255 240 0
1 285 -270 0
1 -285 -3151 0
1 285 -3091 0
1 3121 226 0
1 -3121 330 0
1 -3121 -270 0
1 3121 -3120 0
1 3121 285 0
1 3136 -376 0
1 -3136 345 0
1 -3151 -285 0
1 -3151 -3166 0
1 -3166 -301 0
1 3166 270 0
1 -3166 -240 0
1 3166 376 0
1 3166 255 0
1 300 3136 0
1 300 3106 0
1 -300 -3000 0
1 300 -315 0
1 315 -3121 0
1 315 316 0
1 330 -345 0
1 -330 3016 0
1 -345 3106 0
1 345 -330 0
1 345 -3121 0
1 -345 -3031 0
1 -3061 3076 0
1 3061 330 0
1 3061 -270 0
1 3061 -435 0
1 -3076 -3075 0
1 -3076 -360 0
1 3076 -345 0
1 -3091 -300 0
1 3091 435 0
1 -3091 285 0
1 -3106 -3105 0
1 -3106 -3107 0
1 3106 -420 0
1 -3106 -361 0
1 360 361 0
1 375 376 0
1 390 3016 0
1 390 3031 0
1 405 3076 0
1 405 3016 0
1 -3001 -390 0
1 3001 -495 0
1 -3001 345 0
1 -3016 480 0
1 -3016 390 0
1 -3031 -390 0
1 -3046 450 0
1 -3046 -465 0
1 -3046 405 0
1 -62 77 0
1 -77 -3495 0
1 -77 3510 0
1 77 62 0
1 -92 91 0
1 -107 3525 0
1 107 106 0
1 107 3480 0
1 3480 -137 0
1 3480 122 0
1 -3480 -92 0
1 3480 62 0
1 3510 168 0
1 3510 183 0
1 -3525 -3526 0
1 -3525 -107 0
1 3525 123 0
1 -122 3330 0
1 -137 -138 0
1 137 -3450 0
1 152 -3405 0
1 -152 3420 0
1 167 166 0
1 167 -168 0
1 -167 -3405 0
1 -167 -3345 0
1 3420 -167 0
1 3420 -152 0
1 -3420 122 0
1 3420 92 0
1 3435 -137 0
1 -3435 3436 0
1 3450 228 0
1 3450 137 0
1 3465 242 0
1 3465 -183 0
1 -3465 -152 0
1 -3465 92 0
1 182 -3300 0
1 -182 3345 0
1 182 -183 0
1 197 -3360 0
1 -197 -3375 0
1 -197 3315 0
1 212 3301 0
1 212 -3405 0
1 212 3375 0
1 -212 211 0
1 -227 -3331 0
1 227 3301 0
1 -227 -3420 0
1 -227 -3390 0
1 3360 -212 0
1 3375 -227 0
1 -3375 -197 0
1 -3375 271 0
1 -3375 3376 0
1 -3375 241 0
1 3375 -152 0
1 -3390 257 0
1 3390 -227 0
1 3390 287 0
1 -3405 -167 0
1 3405 3406 0
1 241 256 0
1 241 240 0
1 256 3301 0
1 -256 3210 0
1 -256 -241 0
1 -256 3346 0
1 271 3256 0
1 -286 3331 0
1 286 -3210 0
1 286 -3346 0
1 286 285 0
1 -3301 331 0
1 -3301 -301 0
1 3316 -241 0
1 3316 -212 0
1 3331 -3330 0
1 3331 -302 0
1 -3331 -241 0
1 3331 -286 0
1 -3346 -302 0
1 3346 377 0
1 3346 347 0
1 3346 -317 0
1 301 -3271 0
1 -301 3210 0
1 316 3316 0
1 331 3316 0
1 346 -3211 0
1 -346 3256 0
1 346 -3226 0
1 346 3166 0
1 3241 -391 0
1 3256 391 0
1 -3256 -376 0
1 3256 316 0
1 3271 3270 0
1 3271 436 0
1 3271 -3286 0
1 -3271 407 0
1 -3271 346 0
1 -3286 392 0
1 3286 362 0
1 3286 -3285 0
1 -3286 377 0
1 -3286 -316 0
1 361 3136 0
1 361 3106 0
1 361 3256 0
1 -361 -3181 0
1 -361 3151 0
1 376 -3241 0
1 376 3181 0
1 376 -3151 0
1 -391 390 0
1 391 3241 0
1 -391 -3122 0
1 406 3106 0
1 406 -3167 0
1 3181 481 0
1 3181 -391 0
1 3181 -331 0
1 3181 -496 0
1 3196 450 0
1 -3196 361 0
1 -3196 331 0
1 3196 -3181 0
1 3196 -406 0
1 3211 481 0
1 -3211 -406 0
1 -3211 -376 0
1 3226 496 0
1 3226 -436 0
1 3226 406 0
1 -3226 -346 0
1 420 3137 0
1 420 3076 0
1 -420 -421 0
1 -420 -3181 0
1 -420 -3061 0
1 435 3076 0
1 435 3181 0
1 450 3137 0
1 450 -3181 0
1 -450 3167 0
1 465 3137 0
1 465 3107 0
1 465 466 0
1 -3122 -480 0
1 3122 -3137 0
1 3122 495 0
1 -3137 420 0
1 -3137 -391 0
1 3152 481 0
1 -3152 -420 0
1 -3152 541 0
1 -3167 -3168 0
1 -3167 450 0
1 3167 391 0
1 -3167 -556 0
1 -3167 541 0
1 -480 3137 0
1 495 3092 0
1 -510 -3017 0
1 510 -3032 0
1 -525 -3107 0
1 -525 -510 0
1 -3077 -3078 0
1 -3092 480 0
1 3092 -3091 0
1 3092 -600 0
1 -3107 -3106 0
1 3107 495 0
1 -3107 510 0
1 540 -3002 0
1 570 3062 0
1 -570 3032 0
1 -570 -571 0
1 585 -3017 0
1 -3002 3017 0
1 3017 3016 0
1 -3017 -510 0
1 -3032 615 0
1 -3032 585 0
1 -3032 -510 0
1 3047 3046 0
1 3047 585 0
1 3047 -540 0
1 -63 64 0
1 63 78 0
1 63 3705 0
1 78 63 0
1 93 108 0
1 108 -3645 0
1 -108 -107 0
1 108 -3615 0
1 -3660 199 0
1 -3660 -78 0
1 3660 -93 0
1 3675 3660 0
1 -3690 78 0
1 -3690 -63 0
1 -123 3510 0
1 -123 -3675 0
1 123 -124 0
1 123 3645 0
1 -138 3660 0
1 138 -3630 0
1 -138 3600 0
1 138 -3645 0
1 -138 -3615 0
1 153 -3660 0
1 -153 3630 0
1 -153 152 0
1 153 3675 0
1 -168 169 0
1 -168 -3600 0
1 -3600 -138 0
1 -3600 -213 0
1 3600 183 0
1 -3600 93 0
1 -3615 -138 0
1 3630 -153 0
1 3630 -123 0
1 3645 -108 0
1 3645 184 0
1 -183 -3600 0
1 183 -184 0
1 183 3450 0
1 -198 3540 0
1 -198 3450 0
1 -213 -228 0
1 213 212 0
1 -213 -3481 0
1 213 -3615 0
1 228 -3555 0
1 -228 3526 0
1 -228 3570 0
1 228 213 0
1 3540 -242 0
1 3555 -257 0
1 3555 303 0
1 3555 272 0
1 -3555 242 0
1 3555 213 0
1 -3555 183 0
1 3570 3585 0
1 3570 -228 0
1 -3570 -198 0
1 -3570 -183 0
1 -3585 -168 0
1 -242 -3450 0
1 -257 -3555 0
1 -257 3526 0
1 -257 -3435 0
1 257 -3511 0
1 -272 273 0
1 287 -3390 0
1 -3481 -3496 0
1 -3481 -363 0
1 3481 -332 0
1 3481 302 0
1 -3481 3482 0
1 3481 -242 0
1 3481 378 0
1 3481 347 0
1 -3496 -3497 0
1 -3496 272 0
1 -3496 -3481 0
1 -3496 378 0
1 -3496 347 0
1 -3511 228 0
1 -3511 -303 0
1 -3511 287 0
1 -3526 -303 0
1 3526 -272 0
1 302 -3360 0
1 302 3436 0
1 -302 3481 0
1 -317 3390 0
1 -317 -3346 0
1 -332 3361 0
1 332 -3376 0
1 -347 -348 0
1 3421 -332 0
1 3436 332 0
1 3436 -272 0
1 3451 3466 0
1 3451 437 0
1 3451 408 0
1 3451 -347 0
1 -3451 287 0
1 -3466 422 0
1 -3466 -3465 0
1 -3466 317 0
1 -3466 287 0
1 362 361 0
1 -362 363 0
1 362 3286 0
1 -362 -377 0
1 362 3391 0
1 -377 -3421 0
1 392 391 0
1 -392 3286 0
1 407 3271 0
1 -407 -3391 0
1 3361 -3360 0
1 -3361 -451 0
1 -3361 3376 0
1 -3361 407 0
1 -3376 451 0
1 3376 392 0
1 3391 -392 0
1 -3391 332 0
1 3391 -347 0
1 -3391 3390 0
1 -3406 422 0
1 3406 -3405 0
1 3406 407 0
1 -3406 -347 0
1 -436 -421 0
1 436 3241 0
1 436 3211 0
1 436 435 0
1 -436 3317 0
1 436 3256 0
1 -451 450 0
1 -451 3376 0
1 451 -3347 0
1 -451 -3257 0
1 -466 3376 0
1 -466 -465 0
1 466 -467 0
1 -3302 557 0
1 -3317 481 0
1 3317 -407 0
1 3332 421 0
1 -3332 466 0
1 -3347 -482 0
1 -3347 -392 0
1 -3347 466 0
1 -3347 3348 0
1 -481 -3152 0
1 -496 3242 0
1 496 3181 0
1 -496 -3152 0
1 -496 -3196 0
1 496 3167 0
1 511 -3242 0
1 -511 -3167 0
1 526 -3302 0
1 -526 -525 0
1 -526 527 0
1 526 3152 0
1 526 3317 0
1 -526 -3227 0
1 -526 -3167 0
1 3242 3241 0
1 -3242 3243 0
1 -3242 -556 0
1 -3242 496 0
1 -3242 -466 0
1 3257 -451 0
1 3257 -601 0
1 -3272 3273 0
1 3287 481 0
1 3287 -496 0
1 541 3242 0
1 541 -3212 0
1 541 -3257 0
1 -541 -3167 0
1 556 3152 0
1 571 3212 0
1 -571 -3227 0
1 571 572 0
1 -586 3138 0
1 -586 -3212 0
1 -586 3182 0
1 3182 -3181 0
1 3182 -571 0
1 -3182 511 0
1 3212 631 0
1 -3212 571 0
1 3227 -556 0
1 -3227 -526 0
1 3227 601 0
1 600 3047 0
1 600 -615 0
1 -615 3107 0
1 615 3077 0
1 615 -3047 0
1 615 -3182 0
1 -615 -3062 0
1 -615 600 0
1 -630 3108 0
1 -630 3063 0
1 645 3047 0
1 645 3123 0
1 -645 -3093 0
1 -645 -3063 0
1 645 -3032 0
1 -3123 675 0
1 3123 615 0
1 3138 586 0
1 3138 -721 0
1 3138 -630 0
1 -3153 736 0
1 -3153 586 0
1 -3153 691 0
1 3153 661 0
1 -3168 -736 0
1 -3168 645 0
1 3168 615 0
1 -3168 -3153 0
1 -3168 -630 0
1 -3168 -600 0
1 3168 -571 0
1 3168 3167 0
1 660 -675 0
1 660 661 0
1 660 -3093 0
1 675 676 0
1 -675 -3017 0
1 -675 -3063 0
1 690 3108 0
1 -690 -3018 0
1 705 690 0
1 -3063 735 0
1 -3078 780 0
1 3078 720 0
1 -3078 -690 0
1 3093 3092 0
1 3093 795 0
1 -3108 690 0
1 -3108 795 0
1 735 736 0
1 -735 3078 0
1 735 3048 0
1 750 -3033 0
1 -765 750 0
1 3003 840 0
1 -3003 3002 0
1 3003 -735 0
1 -3018 -3019 0
1 3018 -855 0
1 3018 735 0
1 -3033 -840 0
1 -3033 3048 0
1 3033 810 0
1 3033 -780 0
1 3033 750 0
1 3033 -795 0
1 3033 765 0
1 -3048 -690 0
1 3048 855 0
1 -3048 795 0
1 -3048 -735 0
1 64 -3870 0
1 -79 -3840 0
1 79 -78 0
1 -94 -3780 0
1 94 3795 0
1 -94 93 0
1 -94 95 0
1 -109 3810 0
1 109 108 0
1 -109 3870 0
1 109 -3825 0
1 3840 -109 0
1 -3855 -3840 0
1 3855 109 0
1 3870 -200 0
1 -3870 140 0
1 -3870 -155 0
1 -3885 3870 0
1 3885 185 0
1 3885 125 0
1 3885 -94 0
1 124 3825 0
1 -124 -3705 0
1 124 -123 0
1 139 138 0
1 -154 3840 0
1 154 -3780 0
1 154 3795 0
1 169 3720 0
1 -169 -170 0
1 169 3690 0
1 169 3735 0
1 3780 -259 0
1 -3780 -199 0
1 3780 -214 0
1 -3795 229 0
1 -3795 199 0
1 3810 230 0
1 3810 139 0
1 -3810 215 0
1 -3810 -94 0
1 -3825 3810 0
1 -3825 200 0
1 -3825 109 0
1 -3825 -154 0
1 3825 94 0
1 -184 3720 0
1 184 -3630 0
1 184 183 0
1 199 3645 0
1 214 -3735 0
1 214 -3645 0
1 -229 3780 0
1 -229 -3630 0
1 -229 3645 0
1 3720 -288 0
1 -3720 243 0
1 -3720 214 0
1 3720 184 0
1 -3735 -229 0
1 3735 -214 0
1 -3750 -229 0
1 3750 -214 0
1 3750 319 0
1 3765 289 0
1 3765 -199 0
1 -3765 -169 0
1 3765 -274 0
1 -243 -258 0
1 243 -3720 0
1 243 -242 0
1 243 -3645 0
1 258 257 0
1 -258 -3691 0
1 258 3706 0
1 273 -3585 0
1 273 -3616 0
1 -273 3601 0
1 -273 -274 0
1 -273 -3676 0
1 -288 3585 0
1 -288 -3720 0
1 288 3691 0
1 -288 273 0
1 -3661 288 0
1 3661 -333 0
1 -3661 -3660 0
1 -3661 318 0
1 -3676 -288 0
1 3676 -243 0
1 -3676 3675 0
1 3676 -348 0
1 -3691 -3690 0
1 -3691 304 0
1 -3691 273 0
1 -3691 -379 0
1 3706 273 0
1 -3706 -243 0
1 -3706 3705 0
1 -303 3585 0
1 -303 -302 0
1 -303 304 0
1 303 3570 0
1 -333 -3616 0
1 -333 -334 0
1 333 -3541 0
1 -333 348 0
1 -348 3661 0
1 348 -3571 0
1 -348 3511 0
1 -3601 288 0
1 3601 -423 0
1 -3601 -303 0
1 -3616 3617 0
1 -3616 -333 0
1 -3631 -3630 0
1 -3631 438 0
1 -3631 -409 0
1 3631 -348 0
1 3646 394 0
1 -3646 348 0
1 3646 -318 0
1 -363 -3616 0
1 -363 3541 0
1 378 3601 0
1 378 379 0
1 -393 3601 0
1 408 3616 0
1 408 -3466 0
1 -408 -3571 0
1 408 -3512 0
1 -3541 -422 0
1 3541 333 0
1 -3556 3557 0
1 3556 -498 0
1 -3571 423 0
1 3571 -498 0
1 -3571 -378 0
1 3586 -3585 0
1 -3586 408 0
1 422 -423 0
1 -422 -3527 0
1 -422 -3497 0
1 -422 3466 0
1 422 3512 0
1 422 3391 0
1 437 -3527 0
1 437 -3466 0
1 -437 -3436 0
1 437 436 0
1 -437 3512 0
1 -437 -3391 0
1 -452 -3467 0
1 467 -3437 0
1 467 3512 0
1 -467 -3391 0
1 3482 -482 0
1 3482 3497 0
1 -3482 527 0
1 -3482 -467 0
1 -3482 -3481 0
1 -3497 -482 0
1 -3512 -3527 0
1 3512 -437 0
1 -3527 513 0
1 -3527 -498 0
1 3527 -437 0
1 482 -3361 0
1 -482 3467 0
1 482 3482 0
1 497 -3497 0
1 497 3347 0
1 -512 527 0
1 -512 -3422 0
1 -527 512 0
1 527 -3392 0
1 527 -3497 0
1 -527 3407 0
1 -527 528 0
1 527 -3422 0
1 3452 527 0
1 -3452 -467 0
1 557 -3332 0
1 557 -3272 0
1 557 3422 0
1 -572 3333 0
1 572 -3348 0
1 -572 -3287 0
1 572 3422 0
1 -587 3333 0
1 -3362 -646 0
1 -3362 -3377 0
1 -3377 677 0
1 -3377 557 0
1 3377 662 0
1 -3377 572 0
1 3392 587 0
1 3392 602 0
1 -3392 -572 0
1 -3407 587 0
1 -3407 557 0
1 3407 662 0
1 -601 3272 0
1 601 -3377 0
1 601 -3257 0
1 -616 3333 0
1 -616 615 0
1 -631 -3303 0
1 631 -632 0
1 631 3258 0
1 -631 -3227 0
1 -631 3288 0
1 -646 -3377 0
1 3303 -646 0
1 3303 587 0
1 -3303 691 0
1 3303 631 0
1 3318 -3303 0
1 3318 -601 0
1 -3318 -3319 0
1 3333 3332 0
1 -3333 -677 0
1 3348 -737 0
1 3348 722 0
1 3348 3349 0
1 3348 -662 0
1 -3348 -631 0
1 -661 -3153 0
1 661 -3318 0
1 661 -3288 0
1 -661 -3197 0
1 -676 3243 0
1 676 3318 0
1 676 -3227 0
1 -691 -692 0
1 -706 -705 0
1 706 -3303 0
1 -706 3273 0
1 706 3153 0
1 706 3318 0
1 -3243 736 0
1 -3243 -691 0
1 3273 752 0
1 -3288 3273 0
1 -3288 -3287 0
1 -3288 -767 0
1 -721 -3168 0
1 721 3138 0
1 721 -3153 0
1 -736 -3243 0
1 736 721 0
1 -751 3169 0
1 751 3108 0
1 751 -3154 0
1 -766 3183 0
1 -766 3093 0
1 766 3198 0
1 766 767 0
1 -3183 3184 0
1 -3183 721 0
1 3183 795 0
1 3198 -721 0
1 -3198 -856 0
1 3198 -3197 0
1 -3213 -781 0
1 -3213 -766 0
1 -3228 781 0
1 3228 856 0
1 -3228 -3227 0
1 795 3169 0
1 -795 -3078 0
1 795 796 0
1 795 -3198 0
1 -810 -3169 0
1 810 -3109 0
1 810 -3154 0
1 810 -825 0
1 -825 3183 0
1 -825 -3154 0
1 -3124 -810 0
1 3124 3123 0
1 -3124 -3125 0
1 3124 -825 0
1 3139 3138 0
1 -3139 -901 0
1 -3139 -916 0
1 -3154 -871 0
1 -3154 -856 0
1 -3169 -3168 0
1 -3169 -825 0
1 3169 795 0
1 840 841 0
1 840 3033 0
1 855 3139 0
1 -855 -3079 0
1 -855 3018 0
1 855 3033 0
1 870 -3094 0
1 -885 3139 0
1 885 -3079 0
1 885 -886 0
1 -885 -3034 0
1 -3079 -3080 0
1 -3079 -810 0
1 -3079 -975 0
1 3079 855 0
1 3094 -901 0
1 3109 960 0
1 -3109 -946 0
1 -3109 -916 0
1 3109 3094 0
1 900 -901 0
1 -900 3079 0
1 -915 -3049 0
1 915 -3034 0
1 -930 -3079 0
1 -3004 870 0
1 3019 -930 0
1 -3019 915 0
1 3034 1005 0
1 3049 -1035 0
1 -3049 -990 0
1 -95 4005 0
1 95 3975 0
1 95 -4050 0
1 -95 4020 0
1 95 3990 0
1 110 109 0
1 -110 3990 0
1 110 3960 0
1 -4035 -4020 0
1 -4035 -125 0
1 4035 -95 0
1 -4050 -65 0
1 -4065 -95 0
1 125 4035 0
1 125 4005 0
1 -125 3885 0
1 -125 4020 0
1 140 -3975 0
1 155 -4020 0
1 -155 3990 0
1 155 -3930 0
1 170 -4005 0
1 -170 -3990 0
1 -170 155 0
1 -3960 200 0
1 -3960 245 0
1 -3960 -95 0
1 -3975 230 0
1 -3975 -245 0
1 3975 -185 0
1 -3990 155 0
1 -185 -3825 0
1 -185 -3870 0
1 -200 -3825 0
1 -215 230 0
1 215 3975 0
1 -215 -3886 0
1 215 3930 0
1 -230 -3841 0
1 230 -3975 0
1 -230 -3886 0
1 3900 -230 0
1 -3900 -3915 0
1 -3900 -274 0
1 -3900 -185 0
1 -3915 -3900 0
1 -3930 290 0
1 -3945 -290 0
1 3945 3946 0
1 -3945 305 0
1 -3945 215 0
1 -3945 185 0
1 3945 3930 0
1 244 -3810 0
1 244 -3780 0
1 244 3915 0
1 -244 3856 0
1 -259 -3900 0
1 274 -3826 0
1 -274 3900 0
1 -289 -290 0
1 -289 3826 0
1 -3841 -289 0
1 -3841 -334 0
1 3841 274 0
1 3856 -259 0
1 3856 334 0
1 3856 -244 0
1 3871 305 0
1 -3871 215 0
1 -3886 -259 0
1 3886 3887 0
1 -3886 215 0
1 319 -320 0
1 -319 -3750 0
1 319 -3735 0
1 -334 -3841 0
1 -334 3781 0
1 349 -3751 0
1 349 -3856 0
1 349 -3736 0
1 -349 -3706 0
1 -3781 -289 0
1 -3781 394 0
1 3781 364 0
1 3781 304 0
1 -3781 274 0
1 3781 -409 0
1 -3796 274 0
1 -3796 439 0
1 3796 379 0
1 -3811 424 0
1 3811 -439 0
1 3811 -410 0
1 -3826 3811 0
1 -3826 -380 0
1 -364 363 0
1 -364 3691 0
1 364 -379 0
1 364 -3646 0
1 379 3676 0
1 -394 3751 0
1 394 3721 0
1 -394 -409 0
1 394 -3707 0
1 409 -3751 0
1 -409 3736 0
1 -409 3766 0
1 -409 -3677 0
1 -409 -3646 0
1 -3721 -3720 0
1 -3721 -468 0
1 -3721 -3736 0
1 3721 -379 0
1 -3721 349 0
1 3736 453 0
1 -3736 -423 0
1 3751 424 0
1 3751 364 0
1 -3766 484 0
1 -3766 -454 0
1 3766 334 0
1 -423 -3662 0
1 438 -3721 0
1 -438 -3692 0
1 -438 439 0
1 453 452 0
1 453 3571 0
1 468 3632 0
1 3662 483 0
1 -3662 -453 0
1 -3662 394 0
1 -3677 544 0
1 3677 -468 0
1 -3677 -3676 0
1 3692 -514 0
1 -3692 -484 0
1 -3692 -423 0
1 -3707 -514 0
1 3707 -3706 0
1 -3707 -3708 0
1 483 -3617 0
1 -483 3662 0
1 -483 3541 0
1 -498 -3586 0
1 -498 -497 0
1 498 3602 0
1 513 3677 0
1 -513 -3647 0
1 -528 3617 0
1 -528 -529 0
1 -3602 513 0
1 3602 3617 0
1 -3602 -558 0
1 -3602 -468 0
1 -3617 -483 0
1 3617 588 0
1 -3617 -558 0
1 -3632 -544 0
1 3632 589 0
1 -3632 -3631 0
1 3647 483 0
1 3647 -603 0
1 3647 -574 0
1 -543 -3617 0
1 543 -3602 0
1 -543 3542 0
1 558 -3557 0
1 558 3497 0
1 -558 3482 0
1 558 -543 0
1 573 3572 0
1 -573 3513 0
1 588 3557 0
1 588 -3513 0
1 -3542 -3541 0
1 3542 663 0
1 3542 543 0
1 -3557 647 0
1 -3557 -617 0
1 -3557 558 0
1 -3557 -528 0
1 3572 -3587 0
1 -3572 3571 0
1 -3572 -663 0
1 3572 603 0
1 3572 -543 0
1 -602 -3392 0
1 -602 -3407 0
1 -602 3542 0
1 617 3392 0
1 -617 616 0
1 617 -3407 0
1 -617 3452 0
1 632 -3468 0
1 -632 3542 0
1 632 -3423 0
1 -647 -3392 0
1 -647 -3513 0
1 -647 -3453 0
1 3483 -677 0
1 -3483 -3498 0
1 3483 -588 0
1 3483 3482 0
1 -3483 -3484 0
1 3498 -647 0
1 -3498 3483 0
1 -3513 -3512 0
1 3513 723 0
1 3528 -738 0
1 3528 617 0
1 -3528 -723 0
1 3528 -632 0
1 -662 -3362 0
1 -662 -3498 0
1 662 3468 0
1 -662 -663 0
1 -677 -3468 0
1 -677 3438 0
1 692 3408 0
1 -692 -691 0
1 692 -3348 0
1 707 -3348 0
1 3423 3424 0
1 3423 782 0
1 -3423 -3438 0
1 3423 797 0
1 3438 -752 0
1 -3438 722 0
1 -3438 662 0
1 3453 -647 0
1 3453 632 0
1 3453 3454 0
1 3468 738 0
1 3468 -707 0
1 3468 3467 0
1 -3468 662 0
1 -3468 632 0
1 -722 3363 0
1 -722 3303 0
1 722 721 0
1 -722 -3378 0
1 -722 723 0
1 -737 -3408 0
1 737 -3348 0
1 -767 3304 0
1 -767 3408 0
1 767 -3288 0
1 3363 842 0
1 -3363 -811 0
1 -3363 767 0
1 3378 -842 0
1 3378 857 0
1 3378 -767 0
1 -3393 -707 0
1 -3393 -842 0
1 3393 -3408 0
1 -3393 857 0
1 -3393 -767 0
1 3408 842 0
1 -3408 782 0
1 3408 -3407 0
1 3408 752 0
1 -3408 827 0
1 -3408 797 0
1 -781 -3273 0
1 781 3243 0
1 -781 -782 0
1 -796 -3363 0
1 796 -3334 0
1 -796 3304 0
1 -796 3288 0
1 796 795 0
1 796 -797 0
1 -826 3259 0
1 826 3228 0
1 3304 -902 0
1 -3304 3303 0
1 -3304 886 0
1 3304 -856 0
1 3319 3320 0
1 -3319 -752 0
1 -3334 -3335 0
1 3334 -752 0
1 3334 -917 0
1 -3349 -872 0
1 3349 781 0
1 -3349 752 0
1 -3349 -826 0
1 -841 -840 0
1 -841 3213 0
1 -841 3289 0
1 -841 -3228 0
1 -856 -3169 0
1 856 -3289 0
1 856 841 0
1 -856 3274 0
1 -856 -3244 0
1 -856 3213 0
1 -856 3183 0
1 -871 -872 0
1 -871 -3304 0
1 -871 -886 0
1 871 3259 0
1 -871 -3229 0
1 886 3304 0
1 886 3154 0
1 -886 -885 0
1 886 -3289 0
1 -886 -3199 0
1 3244 931 0
1 -3244 -901 0
1 3244 -841 0
1 3244 811 0
1 -3244 916 0
1 3244 -856 0
1 -3259 871 0
1 -3259 3258 0
1 3259 -841 0
1 -3259 -3260 0
1 3274 -932 0
1 -3274 -976 0
1 -3274 3289 0
1 -3289 961 0
1 3289 3274 0
1 -901 3169 0
1 901 -3244 0
1 901 -3199 0
1 -916 3139 0
1 916 3244 0
1 916 3214 0
1 -916 -3184 0
1 -916 3259 0
1 -931 -3094 0
1 931 3199 0
1 -946 3214 0
1 -946 -3184 0
1 -946 -945 0
1 946 3155 0
1 -946 -3199 0
1 -3184 1036 0
1 3184 1021 0
1 -3199 -960 0
1 -3199 931 0
1 -3199 975 0
1 -3214 976 0
1 -3229 901 0
1 3229 -916 0
1 960 3109 0
1 975 -3079 0
1 -975 976 0
1 -975 3125 0
1 -990 3170 0
1 -990 -3184 0
1 990 -3095 0
1 990 991 0
1 -1005 3125 0
1 -1005 -3034 0
1 -1005 -3199 0
1 3125 975 0
1 3125 990 0
1 3140 -3139 0
1 -3140 -1081 0
1 -3155 -3170 0
1 -3155 1096 0
1 -3155 1066 0
1 3170 -1081 0
1 3170 -1021 0
1 -1020 3140 0
1 1020 3110 0
1 1020 -3065 0
1 -1035 -1036 0
1 1050 -3110 0
1 -1050 3095 0
1 1065 3110 0
1 1065 3080 0
1 -3065 -1035 0
1 -3080 -1125 0
1 -3080 -1095 0
1 3080 3079 0
1 -3095 -3110 0
1 3095 -1096 0
1 -3095 1035 0
1 -3110 3109 0
1 -3110 -1065 0
1 -1080 -3005 0
1 1110 -3080 0
1 1110 3050 0
1 -1110 3005 0
1 3005 1050 0
1 3020 -1065 0
1 -3020 -1110 0
1 -3035 1065 0
1 -3035 -3050 0
1 3050 1065 0
1 -3050 3049 0
1 3050 -3035 0
1 -245 -3945 0
1 260 3960 0
1 -290 -4006 0
1 290 3945 0
1 290 4051 0
1 -4021 305 0
1 -4021 -245 0
1 -4036 4035 0
1 4036 -350 0
1 -4051 -260 0
1 -4051 4052 0
1 4066 -290 0
1 -305 3945 0
1 305 4021 0
1 -305 -3871 0
1 320 4036 0
1 -320 -3945 0
1 320 -3915 0
1 -320 -3961 0
1 -320 3930 0
1 -335 -3871 0
1 -350 -4036 0
1 350 -4006 0
1 350 3901 0
1 -3961 -320 0
1 3961 3962 0
1 -3961 425 0
1 3976 305 0
1 3976 -440 0
1 3976 380 0
1 -3991 -4006 0
1 3991 305 0
1 3991 275 0
1 -4006 4005 0
1 -4006 -305 0
1 -365 -3811 0
1 -365 3976 0
1 365 3946 0
1 365 -3901 0
1 380 365 0
1 -380 -3886 0
1 -380 -3961 0
1 395 3887 0
1 -395 -410 0
1 410 3842 0
1 -410 395 0
1 -410 3887 0
1 -410 -3826 0
1 -3901 410 0
1 -3916 -454 0
1 -3916 335 0
1 3916 -410 0
1 3916 3901 0
1 -3931 -3932 0
1 -3931 395 0
1 3931 3930 0
1 3931 -350 0
1 -3946 455 0
1 3946 -425 0
1 -3946 395 0
1 -3946 365 0
1 424 -3842 0
1 424 -3887 0
1 424 3826 0
1 -439 -3872 0
1 439 3796 0
1 -454 3872 0
1 454 -3842 0
1 454 3751 0
1 454 3857 0
1 454 -3766 0
1 469 -3812 0
1 -469 470 0
1 3842 -3841 0
1 3842 -454 0
1 -3842 -395 0
1 -3842 -560 0
1 -3842 529 0
1 -3842 -439 0
1 3857 -3842 0
1 3857 454 0
1 -3857 -395 0
1 3857 3856 0
1 -3857 469 0
1 3872 -424 0
1 3872 -3887 0
1 -3887 -3872 0
1 3887 545 0
1 3887 530 0
1 -3887 469 0
1 484 483 0
1 -484 -485 0
1 484 -3857 0
1 -484 -3827 0
1 -499 3766 0
1 -499 3736 0
1 -499 3707 0
1 514 515 0
1 -514 -3752 0
1 -514 -3857 0
1 -514 3827 0
1 -514 -3767 0
1 -514 3737 0
1 -529 3812 0
1 529 3722 0
1 529 3692 0
1 529 3827 0
1 3782 -514 0
1 -3782 -559 0
1 3797 -529 0
1 -3797 3798 0
1 3797 574 0
1 -3812 545 0
1 -3812 3811 0
1 3827 -514 0
1 3827 -3828 0
1 -544 -545 0
1 -544 -3752 0
1 544 -3692 0
1 544 -3632 0
1 -544 3647 0
1 559 544 0
1 559 -3662 0
1 559 -3647 0
1 574 3708 0
1 589 -3782 0
1 589 590 0
1 -589 -3632 0
1 -589 3767 0
1 589 3647 0
1 3722 618 0
1 3722 -559 0
1 -3722 664 0
1 -3737 679 0
1 3752 -3751 0
1 -3752 649 0
1 -3752 3753 0
1 -3752 -634 0
1 -3752 574 0
1 3767 619 0
1 -3767 -3766 0
1 3767 -604 0
1 603 3587 0
1 603 3663 0
1 603 602 0
1 -603 604 0
1 603 3647 0
1 618 -617 0
1 -618 3602 0
1 -618 -3737 0
1 -633 -3618 0
1 633 -3587 0
1 -633 -3663 0
1 -633 -3737 0
1 648 -3587 0
1 648 -3722 0
1 -648 3663 0
1 3663 -708 0
1 -3663 693 0
1 3663 633 0
1 3663 -574 0
1 -3678 648 0
1 -3678 -633 0
1 3693 589 0
1 -3708 -648 0
1 3708 589 0
1 -3708 633 0
1 -663 3663 0
1 663 -662 0
1 -663 664 0
1 678 -677 0
1 -693 -3618 0
1 -693 3558 0
1 693 3663 0
1 708 -709 0
1 -708 -3513 0
1 -3603 -738 0
1 -3603 -708 0
1 -3603 3604 0
1 3603 663 0
1 3633 648 0
1 3633 3632 0
1 -3633 -754 0
1 -3633 -724 0
1 3633 -633 0
1 -3648 -769 0
1 3648 708 0
1 -3648 -724 0
1 3648 -633 0
1 -723 -3558 0
1 738 3588 0
1 738 3543 0
1 753 -754 0
1 753 3514 0
1 768 3618 0
1 768 753 0
1 -768 -3453 0
1 3543 -768 0
1 -3543 -708 0
1 3543 3558 0
1 -3558 -708 0
1 3558 -782 0
1 3558 723 0
1 -3558 827 0
1 3573 768 0
1 3573 -3574 0
1 3573 -798 0
1 3588 -708 0
1 3588 828 0
1 -782 781 0
1 -782 3543 0
1 -797 -3514 0
1 812 -3558 0
1 812 3529 0
1 -812 811 0
1 812 -3484 0
1 827 3424 0
1 827 -3469 0
1 827 3543 0
1 -827 -828 0
1 3484 842 0
1 3484 3483 0
1 3484 857 0
1 -3514 -903 0
1 3514 -843 0
1 3514 -812 0
1 -3514 888 0
1 3529 903 0
1 3529 -843 0
1 3529 782 0
1 3529 -3514 0
1 -3529 -858 0
1 -3529 -797 0
1 -842 3363 0
1 842 -843 0
1 -842 -3349 0
1 842 -3484 0
1 -857 3393 0
1 -872 -3424 0
1 872 -871 0
1 872 -873 0
1 -872 3469 0
1 872 3349 0
1 887 3409 0
1 -887 -888 0
1 3424 -3425 0
1 3424 842 0
1 -3424 917 0
1 3439 902 0
1 3439 977 0
1 3454 -962 0
1 -3454 -3469 0
1 -3454 -977 0
1 -3454 -857 0
1 -3454 3453 0
1 -3469 872 0
1 3469 842 0
1 -3469 977 0
1 3469 918 0
1 902 3349 0
1 -902 -3319 0
1 917 3349 0
1 932 3364 0
1 -932 3409 0
1 932 3350 0
1 947 3364 0
1 947 3274 0
1 947 -3409 0
1 -947 946 0
1 947 3379 0
1 3364 961 0
1 -3364 -872 0
1 -3364 -976 0
1 3364 -917 0
1 -3364 1022 0
1 -3379 932 0
1 -3379 3378 0
1 -3379 -917 0
1 -3379 -1022 0
1 3394 -962 0
1 -3394 -872 0
1 3394 947 0
1 -3409 -992 0
1 3409 -962 0
1 3409 3394 0
1 -3409 -902 0
1 3409 -977 0
1 -3409 947 0
1 -961 -3350 0
1 961 -3320 0
1 961 -3259 0
1 -976 -3335 0
1 -976 3244 0
1 976 3379 0
1 976 -3229 0
1 991 -3275 0
1 -991 3379 0
1 991 -3229 0
1 -991 990 0
1 1006 3379 0
1 1006 -3350 0
1 -1006 3320 0
1 -3305 -961 0
1 3320 947 0
1 -3320 1082 0
1 -3320 1021 0
1 -3320 991 0
1 -3335 -1097 0
1 3335 -1067 0
1 3350 -932 0
1 -3350 3335 0
1 3350 -1037 0
1 -1021 3214 0
1 -1036 -3305 0
1 1036 -3320 0
1 -1036 3260 0
1 1036 3199 0
1 1051 3320 0
1 -1051 -3230 0
1 -1066 3305 0
1 -1066 3275 0
1 -3245 -1111 0
1 3260 -3245 0
1 -3275 1127 0
1 -3275 3274 0
1 -3275 1036 0
1 -3275 1051 0
1 3275 1021 0
1 -3290 -1127 0
1 -3290 1036 0
1 -3290 -3289 0
1 -1081 3170 0
1 -1081 3140 0
1 1081 -3125 0
1 -1081 -1082 0
1 -1081 3230 0
1 1096 -3185 0
1 1096 -3095 0
1 -1111 -3200 0
1 -1111 3215 0
1 1111 -3095 0
1 -1111 -3230 0
1 1126 3110 0
1 1126 -1127 0
1 1126 -3215 0
1 3185 1111 0
1 3215 1096 0
1 3215 3230 0
1 -425 424 0
1 -425 -3976 0
1 425 3961 0
1 -440 4006 0
1 -440 3976 0
1 440 -3946 0
1 -455 -454 0
1 -455 4052 0
1 -470 -4052 0
1 -470 4022 0
1 4022 485 0
1 4022 440 0
1 -4037 -425 0
1 4037 440 0
1 4052 4053 0
1 4067 4068 0
1 -4067 -4052 0
1 485 -3962 0
1 485 3931 0
1 485 3901 0
1 -500 -3887 0
1 500 499 0
1 -500 -3962 0
1 500 -3931 0
1 515 -3872 0
1 515 514 0
1 -515 3992 0
1 530 -3947 0
1 -530 -4022 0
1 530 3992 0
1 3962 -620 0
1 3962 -605 0
1 3977 -545 0
1 -3977 -3978 0
1 3977 620 0
1 3977 -590 0
1 3977 560 0
1 -3977 500 0
1 3977 -575 0
1 3992 -515 0
1 -3992 455 0
1 -3992 470 0
1 3992 605 0
1 4007 4008 0
1 4007 -620 0
1 4007 -470 0
1 545 3962 0
1 -560 545 0
1 560 3842 0
1 575 -3873 0
1 575 3947 0
1 590 -3947 0
1 -590 3827 0
1 -3902 530 0
1 -3917 3916 0
1 3932 -620 0
1 3932 635 0
1 3947 590 0
1 3947 605 0
1 619 -3812 0
1 -619 -3782 0
1 -619 620 0
1 -634 -3828 0
1 -634 -633 0
1 -634 -635 0
1 -634 3902 0
1 -649 3873 0
1 649 3783 0
1 649 3752 0
1 -649 -3917 0
1 -649 3767 0
1 -649 -3902 0
1 3843 -3842 0
1 -3843 740 0
1 3858 740 0
1 -3858 619 0
1 -3873 740 0
1 3873 -680 0
1 3873 -619 0
1 -3873 590 0
1 -3888 -710 0
1 3888 3889 0
1 3888 575 0
1 -664 -679 0
1 664 -3858 0
1 -664 663 0
1 664 -665 0
1 -679 3722 0
1 -679 3828 0
1 679 -3737 0
1 -694 -3843 0
1 -694 3783 0
1 -709 -3768 0
1 3783 -739 0
1 -3783 709 0
1 -3783 -784 0
1 3798 -3783 0
1 3798 -649 0
1 -3798 -724 0
1 -3798 -694 0
1 -3798 634 0
1 -3813 770 0
1 3813 -679 0
1 -3813 -755 0
1 3813 3828 0
1 3813 634 0
1 -3828 -770 0
1 3828 649 0
1 -3828 -634 0
1 -724 3648 0
1 724 -739 0
1 -724 -3633 0
1 724 -723 0
1 -724 -3768 0
1 -724 3738 0
1 -724 -3708 0
1 739 -3723 0
1 739 -3633 0
1 739 -3738 0
1 754 3768 0
1 754 3738 0
1 769 -768 0
1 -769 3664 0
1 769 3709 0
1 3723 -844 0
1 -3723 798 0
1 -3753 -739 0
1 -3753 -709 0
1 3753 694 0
1 3753 3768 0
1 3753 -799 0
1 3768 739 0
1 -3768 -709 0
1 3768 -3753 0
1 3768 -844 0
1 -783 -3723 0
1 783 3738 0
1 783 -3709 0
1 798 -3648 0
1 -798 -797 0
1 813 3588 0
1 813 -3604 0
1 -813 -3573 0
1 813 -828 0
1 -828 813 0
1 828 -3664 0
1 828 3634 0
1 -828 -3604 0
1 828 -827 0
1 -828 3679 0
1 -3664 843 0
1 -3664 -813 0
1 -3664 3663 0
1 3664 3665 0
1 3679 -754 0
1 -3679 -919 0
1 -3679 798 0
1 3694 -3693 0
1 3694 -754 0
1 3694 -919 0
1 3694 798 0
1 -3709 -844 0
1 843 3649 0
1 858 -3649 0
1 858 -857 0
1 -873 872 0
1 873 -3559 0
1 -888 -3664 0
1 -888 -3574 0
1 888 -3514 0
1 -888 -3679 0
1 -3604 -933 0
1 3604 -978 0
1 -3604 -3603 0
1 3619 -3620 0
1 3619 -918 0
1 -3619 858 0
1 -3634 3649 0
1 -3634 -934 0
1 -3634 -904 0
1 -3634 873 0
1 3634 -858 0
1 3634 -828 0
1 -3649 934 0
1 -3649 -813 0
1 -3649 -3634 0
1 -3649 949 0
1 3649 -888 0
1 -3649 858 0
1 -903 -902 0
1 -903 -3469 0
1 903 -3484 0
1 -918 3469 0
1 -918 3604 0
1 -918 917 0
1 918 3484 0
1 -933 3589 0
1 933 3469 0
1 -948 -3619 0
1 -948 -933 0
1 -948 3559 0
1 -948 -3530 0
1 948 -3500 0
1 948 -949 0
1 3544 933 0
1 3544 918 0
1 -3544 -888 0
1 3544 3545 0
1 3544 1023 0
1 -3559 962 0
1 3559 -933 0
1 -3559 3558 0
1 3559 873 0
1 -3559 -977 0
1 -3559 -918 0
1 3574 -963 0
1 3574 -3573 0
1 3589 3588 0
1 3589 -1038 0
1 3589 3574 0
1 -962 3469 0
1 962 3409 0
1 962 3515 0
1 -962 3485 0
1 977 3469 0
1 977 -978 0
1 -992 3425 0
1 992 3559 0
1 -1007 3394 0
1 -1007 1008 0
1 3485 -1098 0
1 3485 -3500 0
1 -3485 977 0
1 -3485 -948 0
1 -3500 1067 0
1 -3500 3499 0
1 -3500 -977 0
1 3500 3485 0
1 -3515 -933 0
1 3515 1068 0
1 3515 1038 0
1 -3515 -948 0
1 3530 3515 0
1 -3530 1083 0
1 -1022 -3394 0
1 -1022 3470 0
1 1022 -1021 0
1 1037 1038 0
1 1037 3379 0
1 1052 3395 0
1 1052 3470 0
1 -1052 -3410 0
1 1052 3485 0
1 -1067 3395 0
1 -1067 3440 0
1 -1067 3485 0
1 3425 992 0
1 3425 -3424 0
1 3425 1067 0
1 3425 1052 0
1 -3440 -992 0
1 -3440 1082 0
1 -3455 992 0
1 -3455 1098 0
1 3455 1037 0
1 3470 1098 0
1 -3470 3469 0
1 3470 1007 0
1 1082 -3410 0
1 1082 1081 0
1 -1097 3425 0
1 -1097 -1082 0
1 1097 1096 0
1 1097 -3275 0
1 1097 -3380 0
1 -1112 3365 0
1 1112 -1111 0
1 1112 -3290 0
1 -1127 -3275 0
1 1127 -3410 0
1 -1127 -3290 0
1 -3365 -1112 0
1 3380 1067 0
1 -3395 3394 0
1 -3410 -1127 0
1 -605 -4038 0
1 -605 -3932 0
1 -620 4007 0
1 620 -619 0
1 620 -3962 0
1 620 3932 0
1 635 -4068 0
1 635 3978 0
1 635 4053 0
1 650 -3947 0
1 -4023 665 0
1 4023 -4024 0
1 4023 -635 0
1 -4023 605 0
1 4038 710 0
1 -4038 605 0
1 -4053 -4068 0
1 4068 -605 0
1 665 680 0
1 665 -3963 0
1 665 -3902 0
1 680 3902 0
1 695 4038 0
1 -695 3918 0
1 695 694 0
1 695 3903 0
1 -710 -709 0
1 710 3918 0
1 710 -3993 0
1 710 3963 0
1 -3963 -740 0
1 -3978 770 0
1 -3978 -680 0
1 -3978 3979 0
1 3993 -680 0
1 -3993 -4008 0
1 -3993 -665 0
1 4008 -4007 0
1 4008 650 0
1 725 -740 0
1 -725 -3948 0
1 -725 -3828 0
1 -725 -3933 0
1 -740 3843 0
1 -755 -3844 0
1 755 -3813 0
1 -755 3918 0
1 -755 -754 0
1 -755 3903 0
1 770 -3813 0
1 -770 -3889 0
1 -770 -755 0
1 3903 3918 0
1 3903 -725 0
1 3918 3917 0
1 -3918 755 0
1 3918 695 0
1 3918 860 0
1 3933 710 0
1 -3933 845 0
1 -3933 755 0
1 3933 -860 0
1 -3933 830 0
1 -3948 785 0
1 -3948 -3933 0
1 -784 3844 0
1 784 -3859 0
1 -784 -3828 0
1 799 3844 0
1 799 -3813 0
1 -799 3753 0
1 -814 -3874 0
1 -814 3814 0
1 814 3753 0
1 814 3918 0
1 814 -3903 0
1 -829 -3844 0
1 -829 -3889 0
1 3844 905 0
1 3844 -755 0
1 3844 -829 0
1 3844 -799 0
1 3859 3844 0
1 -3859 755 0
1 -3874 905 0
1 3874 -784 0
1 -3874 -755 0
1 -3874 -920 0
1 -3874 -860 0
1 -3889 -875 0
1 3889 -814 0
1 3889 -755 0
1 3889 -920 0
1 844 3784 0
1 844 -3753 0
1 -844 -843 0
1 844 -859 0
1 859 3844 0
1 874 -3844 0
1 -874 3754 0
1 874 -875 0
1 -874 -3769 0
1 -889 3814 0
1 889 3799 0
1 -889 888 0
1 -889 3769 0
1 3784 964 0
1 3784 3785 0
1 -3784 -979 0
1 -3784 -859 0
1 -3799 -934 0
1 -3799 874 0
1 -3799 -979 0
1 3814 964 0
1 3814 3813 0
1 -3814 -814 0
1 -3829 920 0
1 904 3799 0
1 919 3649 0
1 934 3784 0
1 934 -3724 0
1 934 -3769 0
1 -949 -3649 0
1 -949 3634 0
1 -3724 1024 0
1 -3724 -934 0
1 -3724 -874 0
1 3724 3725 0
1 -3724 -889 0
1 -3754 874 0
1 -3754 -3769 0
1 -3769 994 0
1 3769 3754 0
1 3769 979 0
1 -3769 919 0
1 3769 3768 0
1 -963 -964 0
1 963 -3665 0
1 -963 3634 0
1 -963 -3574 0
1 -978 -3619 0
1 -978 3589 0
1 -978 -3724 0
1 -993 -3650 0
1 -993 -3695 0
1 -1008 -3680 0
1 -1008 3589 0
1 -1008 -3605 0
1 3665 978 0
1 3665 -1053 0
1 3680 993 0
1 3680 -1099 0
1 3680 949 0
1 3695 -3710 0
1 -3695 -1099 0
1 -3695 -949 0
1 -3695 -1084 0
1 -1023 3680 0
1 -1023 3574 0
1 1023 1022 0
1 -1038 3589 0
1 1038 1037 0
1 1038 -3665 0
1 -1038 3574 0
1 1038 -3544 0
1 -1053 -3575 0
1 -1053 1054 0
1 1068 3530 0
1 1068 3575 0
1 -1068 -1053 0
1 -3605 -3620 0
1 3605 -1038 0
1 -3620 -1128 0
1 3620 1083 0
1 3620 1023 0
1 3635 -3634 0
1 3650 -1084 0
1 -1098 3590 0
1 1098 3530 0
1 1098 -3605 0
1 1098 3575 0
1 -1128 -3620 0
1 1128 -3545 0
1 3545 3560 0
1 3545 -3544 0
1 -3560 -1098 0
1 3560 1083 0
1 3575 -1098 0
1 3575 -1068 0
1 -3575 -1113 0
1 -3590 1128 0
1 785 800 0
1 785 -3963 0
1 -800 4008 0
1 800 -799 0
1 -815 -4039 0
1 815 -3948 0
1 -815 814 0
1 815 -3964 0
1 -830 -4039 0
1 830 -815 0
1 4024 -815 0
1 -4039 -845 0
1 4039 830 0
1 4054 -830 0
1 -4069 -4068 0
1 4069 -4054 0
1 -4069 -830 0
1 -845 3979 0
1 845 -844 0
1 -845 -3948 0
1 -845 3994 0
1 -860 4009 0
1 -860 3933 0
1 860 4024 0
1 -860 -3964 0
1 -875 -3904 0
1 875 -3889 0
1 875 3964 0
1 -875 -3934 0
1 875 3994 0
1 -890 3874 0
1 890 -3979 0
1 890 3919 0
1 -890 3889 0
1 -890 -4024 0
1 -3964 -965 0
1 3964 -905 0
1 -3964 875 0
1 3964 -845 0
1 -3964 -815 0
1 3964 -980 0
1 3979 905 0
1 -3979 3978 0
1 3979 -890 0
1 -3994 -3993 0
1 3994 -845 0
1 4009 4010 0
1 4009 815 0
1 905 3814 0
1 -905 904 0
1 920 -3904 0
1 920 3874 0
1 -920 3949 0
1 920 -3889 0
1 -920 3859 0
1 -935 3904 0
1 935 3890 0
1 935 3860 0
1 -950 3979 0
1 950 3890 0
1 950 -3829 0
1 -950 -949 0
1 3904 -994 0
1 -3904 935 0
1 3904 1040 0
1 -3904 -979 0
1 3904 920 0
1 3919 1025 0
1 3919 -920 0
1 3919 890 0
1 -3934 -995 0
1 -3934 1010 0
1 -3949 -995 0
1 -3949 935 0
1 3949 875 0
1 -3949 1010 0
1 -3949 920 0
1 -3949 -3934 0
1 -964 -3845 0
1 -964 -979 0
1 -979 -3845 0
1 -979 -3799 0
1 994 995 0
1 994 -3845 0
1 994 -3815 0
1 -994 -3754 0
1 994 -1009 0
1 -1009 3860 0
1 3845 994 0
1 -3845 -3844 0
1 -3845 -1039 0
1 3860 3845 0
1 3860 -1100 0
1 -3860 -1085 0
1 3860 -1054 0
1 -3875 3874 0
1 -3875 -964 0
1 -3875 -935 0
1 3890 994 0
1 -3890 935 0
1 3890 -1100 0
1 -3890 -1040 0
1 1024 3860 0
1 -1024 3830 0
1 -1039 3800 0
1 -1054 -3845 0
1 1054 3755 0
1 -1069 3785 0
1 -1069 -3755 0
1 1069 -3860 0
1 3785 994 0
1 3785 1039 0
1 3800 -3785 0
1 3800 -1039 0
1 -3815 1024 0
1 3830 3815 0
1 3830 1085 0
1 -1084 3650 0
1 -1084 3665 0
1 1099 3680 0
1 -1099 -3740 0
1 1099 -1100 0
1 1099 -3725 0
1 -1114 3755 0
1 -1114 -3800 0
1 -1129 -3785 0
1 3725 1069 0
1 3725 -1084 0
1 3740 1069 0
1 -3770 1129 0
1 3770 1114 0
1 965 -964 0
1 -980 -4009 0
1 -995 4025 0
1 995 -3965 0
1 -1010 3949 0
1 1010 4055 0
1 1010 -4025 0
1 4025 -965 0
1 4040 1070 0
1 4040 4025 0
1 -4070 965 0
1 -1040 -1025 0
1 -1040 1039 0
1 1040 3965 0
1 -1055 3920 0
1 1055 3890 0
1 1070 -3905 0
1 1070 -3875 0
1 1070 1069 0
1 1070 -3920 0
1 -1070 3935 0
1 3965 -1025 0
1 -3965 -3964 0
1 3965 1085 0
1 -3965 1055 0
1 3980 995 0
1 3980 1130 0
1 3980 3965 0
1 -3995 1025 0
1 3995 4010 0
1 3995 1010 0
1 -3995 1055 0
1 -4010 995 0
1 -4010 -3995 0
1 -4010 -1055 0
1 1085 -3965 0
1 1100 3905 0
1 1100 3815 0
1 -1100 3950 0
1 1100 3860 0
1 -3905 1130 0
1 3905 1085 0
1 -3920 -1085 0
1 -3950 1130 0
1 -3950 -1070 0
